
  12    4
  10   10   10   10

   0   0   0   0   0   2 2 5 
   3  10  10  10  10   3 8 4 3 
   2  10  10  10  10   4 11 10 7 6 
   4  10  10  10  10   2 10 6 
  10  10  10  10  10   2 7 6 
   3  10  10  10  10   1 9 
   7  10  10  10  10   1 9 
   7  10  10  10  10   1 10 
   5  10  10  10  10   1 12
   4  10  10  10  10   1 12
   2  10  10  10  10   1 12
   0   0   0   0   0   0 
